
Gurobi 13.0.1 (linux64) logging started Thu Mar 26 03:21:11 2026

Set parameter LogFile to value "logs_sparse/50B_6F_robust_gamma_0d2_theta_0d05199999999999999_2026-03-26_03h20m57s.log"
Set parameter MIPGap to value 0.005
Set parameter OptimalityTol to value 0.005
Gurobi Optimizer version 13.0.1 build v13.0.1rc0 (linux64 - "Linux Mint 22")

CPU model: 12th Gen Intel(R) Core(TM) i7-12700, instruction set [SSE2|AVX|AVX2]
Thread count: 20 physical cores, 20 logical processors, using up to 20 threads

Non-default parameters:
TimeLimit  3600
SoftMemLimit  12
MIPGap  0.005
OptimalityTol  0.005

Optimize a model with 60351 rows, 780571 columns and 2406497 nonzeros (Max)
Model fingerprint: 0xf1e7acf5
Model has 735061 linear objective coefficients
Variable types: 15571 continuous, 765000 integer (765000 binary)
Coefficient statistics:
  Matrix range     [3e-05, 1e+05]
  Objective range  [1e+00, 3e+03]
  Bounds range     [1e+00, 1e+05]
  RHS range        [8e-03, 1e+05]

Presolve removed 31036 rows and 564142 columns
Presolve time: 1.38s
Presolved: 29315 rows, 216429 columns, 690965 nonzeros
Variable types: 7521 continuous, 208908 integer (208908 binary)
Found heuristic solution: objective -3.92159e+08
Found heuristic solution: objective -3.87980e+08
Deterministic concurrent LP optimizer: primal simplex, dual simplex, and barrier
Showing barrier log only...

Root barrier log...

Ordering time: 0.42s

Barrier statistics:
 AA' NZ     : 4.006e+05
 Factor NZ  : 3.152e+06 (roughly 120 MB of memory)
 Factor Ops : 6.047e+08 (less than 1 second per iteration)
 Threads    : 18

                  Objective                Residual
Iter       Primal          Dual         Primal    Dual     Compl     Time
   0  -7.11160113e+11  1.05055058e+09  9.82e+06 5.12e+02  9.67e+06     3s
   1  -6.28976857e+10  1.70343806e+09  8.71e+05 6.66e+02  8.73e+05     3s
   2  -2.67202600e+09  1.40566061e+09  3.74e+04 1.71e+02  4.09e+04     3s
   3   6.39917747e+06  9.73366399e+08  1.28e+03 1.39e+01  3.15e+03     3s
   4   8.11246073e+07  4.32940500e+08  3.43e+02 3.61e+00  9.82e+02     3s
   5   9.76221541e+07  2.96171440e+08  1.48e+02 1.98e+00  5.20e+02     3s
   6   1.04148531e+08  2.07461378e+08  7.17e+01 1.00e+00  2.65e+02     3s
   7   1.07365955e+08  1.59184088e+08  3.61e+01 4.70e-01  1.33e+02     3s
   8   1.09527308e+08  1.44795838e+08  1.30e+01 3.23e-01  8.53e+01     3s
   9   1.10101649e+08  1.27963444e+08  6.72e+00 1.56e-01  4.30e+01     3s
  10   1.10190002e+08  1.19324822e+08  5.98e+00 7.28e-02  2.25e+01     3s
  11   1.10863915e+08  1.13593597e+08  6.56e-01 1.72e-02  6.25e+00     3s
  12   1.10984361e+08  1.12187617e+08  3.01e-01 7.03e-03  2.72e+00     3s
  13   1.11065863e+08  1.11625710e+08  1.33e-01 2.89e-03  1.26e+00     3s
  14   1.11132892e+08  1.11432463e+08  5.78e-02 1.57e-03  6.73e-01     3s
  15   1.11173389e+08  1.11299096e+08  1.86e-02 6.32e-04  2.82e-01     3s
  16   1.11186533e+08  1.11260563e+08  8.60e-03 3.84e-04  1.66e-01     3s
  17   1.11195942e+08  1.11238778e+08  2.14e-03 2.39e-04  9.62e-02     3s
  18   1.11197616e+08  1.11226702e+08  1.26e-03 1.62e-04  6.53e-02     3s
  19   1.11198358e+08  1.11218433e+08  8.94e-04 1.51e-04  4.51e-02     3s
  20   1.11199389e+08  1.11212247e+08  5.48e-04 1.01e-04  2.89e-02     3s
  21   1.11199922e+08  1.11208048e+08  3.83e-04 4.07e-05  1.82e-02     3s
  22   1.11200289e+08  1.11207168e+08  2.66e-04 3.54e-05  1.54e-02     4s
  23   1.11200653e+08  1.11205297e+08  1.44e-04 2.40e-05  1.04e-02     4s
  24   1.11200829e+08  1.11204238e+08  9.35e-05 1.77e-05  7.66e-03     4s
  25   1.11200911e+08  1.11203816e+08  7.40e-05 1.52e-05  6.52e-03     4s
  26   1.11201012e+08  1.11203039e+08  4.22e-05 1.05e-05  4.55e-03     4s
  27   1.11201060e+08  1.11202286e+08  3.11e-05 6.09e-06  2.75e-03     4s
  28   1.11201124e+08  1.11202001e+08  1.82e-05 4.47e-06  1.97e-03     4s
  29   1.11201173e+08  1.11201708e+08  8.93e-06 2.76e-06  1.20e-03     4s
  30   1.11201191e+08  1.11201496e+08  5.75e-06 1.53e-06  6.86e-04     4s
  31   1.11201204e+08  1.11201346e+08  3.15e-06 6.39e-07  3.20e-04     4s
  32   1.11201213e+08  1.11201262e+08  1.86e-06 1.77e-07  1.11e-04     4s
  33   1.11201224e+08  1.11201234e+08  4.35e-07 2.95e-08  2.25e-05     4s
  34   1.11201227e+08  1.11201228e+08  1.74e-07 3.19e-09  2.74e-06     4s
  35   1.11201227e+08  1.11201227e+08  1.08e-08 1.99e-10  1.03e-08     4s
  36   1.11201227e+08  1.11201227e+08  1.37e-08 1.44e-10  9.36e-10     4s

Barrier solved model in 36 iterations and 4.20 seconds (5.95 work units)
Optimal objective 1.11201227e+08


Root simplex log...

Iteration    Objective       Primal Inf.    Dual Inf.      Time
   17313    1.1120123e+08   0.000000e+00   6.897751e+05      5s
   20512    1.1120123e+08   0.000000e+00   0.000000e+00      6s
Crossover time: 1.76 seconds (2.13 work units)
Concurrent spin time: 0.01s

Solved with barrier

Root relaxation: objective 1.112012e+08, 20512 iterations, 4.18 seconds (5.13 work units)

    Nodes    |    Current Node    |     Objective Bounds      |     Work
 Expl Unexpl |  Obj  Depth IntInf | Incumbent    BestBd   Gap | It/Node Time

     0     0 1.1120e+08    0 4459 -3.880e+08 1.1120e+08   129%     -    7s
H    0     0                    -2.34961e+08 1.1120e+08   147%     -   10s
H    0     0                    -6.22864e+07 1.1120e+08   279%     -   10s
H    0     0                    -6.07992e+07 1.1120e+08   283%     -   13s
H    0     0                    -5.31394e+07 1.1120e+08   309%     -   16s
H    0     0                    -2.48921e+07 1.1120e+08   547%     -   16s
H    0     0                    -2.05496e+07 1.1120e+08   641%     -   17s
H    0     0                    -238109.9058 1.1120e+08      -     -   21s
H    0     0                    7184552.3162 1.1120e+08  1448%     -   21s
     0     0 1.1120e+08    0 4898 7184552.32 1.1120e+08  1448%     -  102s
H    0     0                    4.000382e+07 1.1120e+08   178%     -  106s
H    0     0                    4.000833e+07 1.1120e+08   178%     -  107s
H    0     0                    4.420491e+07 1.1120e+08   152%     -  116s
H    0     0                    4.518584e+07 1.1120e+08   146%     -  123s
H    0     0                    4.930775e+07 1.1120e+08   126%     -  128s
H    0     0                    5.014491e+07 1.1120e+08   122%     -  143s
H    0     0                    5.931912e+07 1.1120e+08  87.5%     -  143s
H    0     0                    5.960014e+07 1.1120e+08  86.6%     -  146s
H    0     0                    5.980448e+07 1.1120e+08  85.9%     -  146s
H    0     0                    5.982175e+07 1.1120e+08  85.9%     -  146s
H    0     0                    6.069049e+07 1.1120e+08  83.2%     -  154s
H    0     0                    6.079278e+07 1.1120e+08  82.9%     -  160s
H    0     0                    6.098274e+07 1.1120e+08  82.3%     -  160s
H    0     0                    6.100308e+07 1.1120e+08  82.3%     -  160s
H    0     0                    6.685657e+07 1.1120e+08  66.3%     -  160s
H    0     0                    6.685931e+07 1.1120e+08  66.3%     -  182s
H    0     0                    6.779255e+07 1.1120e+08  64.0%     -  182s
H    0     0                    6.820216e+07 1.1120e+08  63.0%     -  182s
H    0     0                    6.854032e+07 1.1120e+08  62.2%     -  182s
H    0     0                    6.908812e+07 1.1120e+08  61.0%     -  182s
H    0     0                    7.253751e+07 1.1120e+08  53.3%     -  183s
     0     0 1.1120e+08    0 5564 7.2538e+07 1.1120e+08  53.3%     -  243s
H    0     0                    8.805263e+07 1.1120e+08  26.3%     -  244s
H    0     0                    9.265155e+07 1.1120e+08  20.0%     -  244s
H    0     0                    9.562750e+07 1.1120e+08  16.3%     -  247s
H    0     0                    9.562892e+07 1.1120e+08  16.3%     -  249s
H    0     0                    9.606616e+07 1.1120e+08  15.8%     -  249s
H    0     0                    1.021203e+08 1.1120e+08  8.89%     -  249s
     0     0 1.1120e+08    0 5564 1.0212e+08 1.1120e+08  8.89%     -  250s
     0     0 1.1120e+08    0 5719 1.0212e+08 1.1120e+08  8.89%     -  295s
     0     0 1.1120e+08    0 5783 1.0212e+08 1.1120e+08  8.89%     -  333s
     0     0 1.1120e+08    0 6516 1.0212e+08 1.1120e+08  8.89%     -  378s
H    0     0                    1.036368e+08 1.1120e+08  7.30%     -  380s
H    0     0                    1.039208e+08 1.1120e+08  7.00%     -  381s
H    0     0                    1.039230e+08 1.1120e+08  7.00%     -  385s
H    0     0                    1.039437e+08 1.1120e+08  6.98%     -  387s
H    0     0                    1.039729e+08 1.1120e+08  6.95%     -  387s
H    0     0                    1.039841e+08 1.1120e+08  6.94%     -  391s
H    0     0                    1.039946e+08 1.1120e+08  6.93%     -  391s
     0     0 1.1120e+08    0 5913 1.0399e+08 1.1120e+08  6.93%     -  400s
     0     0 1.1120e+08    0 6435 1.0399e+08 1.1120e+08  6.93%     -  436s
     0     0 1.1120e+08    0 6116 1.0399e+08 1.1120e+08  6.93%     -  441s
     0     0 1.1120e+08    0 6485 1.0399e+08 1.1120e+08  6.93%     -  469s
     0     0 1.1120e+08    0 6485 1.0399e+08 1.1120e+08  6.93%     -  470s
     0     0 1.1120e+08    0 5651 1.0399e+08 1.1120e+08  6.93%     -  472s
H    0     0                    1.059998e+08 1.1120e+08  4.91%     -  538s
H    0     0                    1.060010e+08 1.1120e+08  4.90%     -  539s
H    0     0                    1.081079e+08 1.1120e+08  2.86%     -  543s
H    0     0                    1.082119e+08 1.1120e+08  2.76%     -  547s
H    0     0                    1.090961e+08 1.1120e+08  1.93%     -  547s
H    0     0                    1.094120e+08 1.1120e+08  1.63%     -  548s
     0     2 1.1120e+08    0 5651 1.0941e+08 1.1120e+08  1.63%     -  549s
     1     4 1.1120e+08    1 5682 1.0941e+08 1.1120e+08  1.63%  4129  563s
     3     6 1.1120e+08    2 5498 1.0941e+08 1.1120e+08  1.63% 20450  591s
     5    10 1.1120e+08    3 5623 1.0941e+08 1.1120e+08  1.63% 19698  639s
     9    11 1.1119e+08    4 5090 1.0941e+08 1.1120e+08  1.63% 27656 3600s

Cutting planes:
  MIR: 19
  Flow cover: 61
  Mod-K: 1
  RLT: 2516
  Relax-and-lift: 44

Explored 10 nodes (650284 simplex iterations) in 3600.05 seconds (4198.96 work units)
Thread count was 20 (of 20 available processors)

Solution count 10: 1.09412e+08 1.08212e+08 1.08108e+08 ... 1.03923e+08

Time limit reached
Best objective 1.094119781874e+08, best bound 1.112002940133e+08, gap 1.6345%
